p cnf 430 1488
-191 164 0
-191 -57 0
-191 87 0
-191 24 0
-191 -40 0
191 -164 57 -87 -24 40 0
-192 38 0
-192 125 0
-192 108 0
-192 -149 0
-192 -69 0
192 -38 -125 -108 149 69 0
-193 -175 0
-193 120 0
-193 91 0
-193 67 0
-193 66 0
193 175 -120 -91 -67 -66 0
-194 152 0
-194 48 0
-194 -117 0
-194 -13 0
-194 -16 0
194 -152 -48 117 13 16 0
-195 10 0
-195 -30 0
-195 124 0
-195 -33 0
-195 139 0
195 -10 30 -124 33 -139 0
191 192 193 194 195 0
-196 -50 0
-196 -89 0
-196 49 0
-196 132 0
-196 148 0
196 50 89 -49 -132 -148 0
-197 -167 0
-197 49 0
-197 -166 0
-197 154 0
-197 -162 0
197 167 -49 166 -154 162 0
-198 62 0
-198 107 0
-198 110 0
-198 -174 0
-198 183 0
198 -62 -107 -110 174 -183 0
-199 19 0
-199 170 0
-199 -190 0
-199 -24 0
-199 184 0
199 -19 -170 190 24 -184 0
-200 190 0
-200 133 0
-200 -121 0
-200 15 0
-200 -144 0
200 -190 -133 121 -15 144 0
196 197 198 199 200 0
-201 97 0
-201 -157 0
-201 -147 0
-201 -162 0
-201 -91 0
201 -97 157 147 162 91 0
-202 -78 0
-202 148 0
-202 -139 0
-202 -91 0
-202 181 0
202 78 -148 139 91 -181 0
-203 -38 0
-203 -179 0
-203 114 0
-203 -86 0
-203 129 0
203 38 179 -114 86 -129 0
-204 -165 0
-204 98 0
-204 52 0
-204 -78 0
-204 -50 0
204 165 -98 -52 78 50 0
-205 16 0
-205 58 0
-205 -129 0
-205 -137 0
-205 128 0
205 -16 -58 129 137 -128 0
201 202 203 204 205 0
-206 113 0
-206 -141 0
-206 78 0
-206 92 0
-206 55 0
206 -113 141 -78 -92 -55 0
-207 -113 0
-207 19 0
-207 -96 0
-207 -42 0
-207 -60 0
207 113 -19 96 42 60 0
-208 -101 0
-208 -96 0
-208 -11 0
-208 -1 0
-208 -48 0
208 101 96 11 1 48 0
-209 -70 0
-209 -73 0
-209 74 0
-209 -4 0
-209 155 0
209 70 73 -74 4 -155 0
-210 -42 0
-210 100 0
-210 -90 0
-210 60 0
-210 -185 0
210 42 -100 90 -60 185 0
206 207 208 209 210 0
-211 -101 0
-211 121 0
-211 16 0
-211 -15 0
-211 -157 0
211 101 -121 -16 15 157 0
-212 -72 0
-212 -133 0
-212 -142 0
-212 174 0
-212 -99 0
212 72 133 142 -174 99 0
-213 35 0
-213 127 0
-213 99 0
-213 138 0
-213 14 0
213 -35 -127 -99 -138 -14 0
-214 59 0
-214 70 0
-214 -47 0
-214 162 0
-214 68 0
214 -59 -70 47 -162 -68 0
-215 -125 0
-215 163 0
-215 -8 0
-215 128 0
-215 -95 0
215 125 -163 8 -128 95 0
211 212 213 214 215 0
-216 86 0
-216 38 0
-216 118 0
-216 -70 0
-216 -133 0
216 -86 -38 -118 70 133 0
-217 -51 0
-217 91 0
-217 37 0
-217 -67 0
-217 2 0
217 51 -91 -37 67 -2 0
-218 -149 0
-218 126 0
-218 -133 0
-218 80 0
-218 178 0
218 149 -126 133 -80 -178 0
-219 159 0
-219 160 0
-219 -63 0
-219 50 0
-219 12 0
219 -159 -160 63 -50 -12 0
-220 -6 0
-220 162 0
-220 34 0
-220 -129 0
-220 -62 0
220 6 -162 -34 129 62 0
216 217 218 219 220 0
-221 -43 0
-221 84 0
-221 -7 0
-221 98 0
-221 -87 0
221 43 -84 7 -98 87 0
-222 -104 0
-222 -95 0
-222 -42 0
-222 -58 0
-222 93 0
222 104 95 42 58 -93 0
-223 12 0
-223 121 0
-223 117 0
-223 -139 0
-223 -124 0
223 -12 -121 -117 139 124 0
-224 -174 0
-224 -114 0
-224 112 0
-224 -31 0
-224 22 0
224 174 114 -112 31 -22 0
-225 -48 0
-225 -91 0
-225 156 0
-225 100 0
-225 -174 0
225 48 91 -156 -100 174 0
221 222 223 224 225 0
-226 -39 0
-226 -31 0
-226 -118 0
-226 -158 0
-226 -64 0
226 39 31 118 158 64 0
-227 180 0
-227 40 0
-227 -179 0
-227 147 0
-227 -178 0
227 -180 -40 179 -147 178 0
-228 92 0
-228 -112 0
-228 -117 0
-228 37 0
-228 51 0
228 -92 112 117 -37 -51 0
-229 167 0
-229 -160 0
-229 168 0
-229 -79 0
-229 -7 0
229 -167 160 -168 79 7 0
-230 34 0
-230 -165 0
-230 39 0
-230 -150 0
-230 177 0
230 -34 165 -39 150 -177 0
226 227 228 229 230 0
-231 -88 0
-231 -81 0
-231 -124 0
-231 141 0
-231 163 0
231 88 81 124 -141 -163 0
-232 77 0
-232 -21 0
-232 187 0
-232 -33 0
-232 -14 0
232 -77 21 -187 33 14 0
-233 51 0
-233 72 0
-233 178 0
-233 -71 0
-233 -40 0
233 -51 -72 -178 71 40 0
-234 -173 0
-234 107 0
-234 10 0
-234 -56 0
-234 -126 0
234 173 -107 -10 56 126 0
-235 179 0
-235 -149 0
-235 -68 0
-235 -36 0
-235 190 0
235 -179 149 68 36 -190 0
231 232 233 234 235 0
-236 53 0
-236 -115 0
-236 -125 0
-236 81 0
-236 -183 0
236 -53 115 125 -81 183 0
-237 87 0
-237 190 0
-237 -134 0
-237 -106 0
-237 40 0
237 -87 -190 134 106 -40 0
-238 -71 0
-238 137 0
-238 127 0
-238 63 0
-238 -23 0
238 71 -137 -127 -63 23 0
-239 -151 0
-239 -50 0
-239 129 0
-239 113 0
-239 48 0
239 151 50 -129 -113 -48 0
-240 -155 0
-240 26 0
-240 94 0
-240 104 0
-240 -158 0
240 155 -26 -94 -104 158 0
236 237 238 239 240 0
-241 9 0
-241 -61 0
-241 -167 0
-241 -101 0
-241 -4 0
241 -9 61 167 101 4 0
-242 -13 0
-242 165 0
-242 -87 0
-242 -62 0
-242 -16 0
242 13 -165 87 62 16 0
-243 -96 0
-243 187 0
-243 157 0
-243 26 0
-243 -37 0
243 96 -187 -157 -26 37 0
-244 -85 0
-244 -40 0
-244 65 0
-244 -161 0
-244 150 0
244 85 40 -65 161 -150 0
-245 -165 0
-245 -103 0
-245 97 0
-245 89 0
-245 -88 0
245 165 103 -97 -89 88 0
241 242 243 244 245 0
-246 -46 0
-246 -63 0
-246 -78 0
-246 -3 0
-246 -163 0
246 46 63 78 3 163 0
-247 82 0
-247 -117 0
-247 -138 0
-247 -176 0
-247 139 0
247 -82 117 138 176 -139 0
-248 69 0
-248 170 0
-248 129 0
-248 -150 0
-248 171 0
248 -69 -170 -129 150 -171 0
-249 -22 0
-249 80 0
-249 72 0
-249 -32 0
-249 107 0
249 22 -80 -72 32 -107 0
-250 117 0
-250 83 0
-250 182 0
-250 31 0
-250 113 0
250 -117 -83 -182 -31 -113 0
246 247 248 249 250 0
-251 155 0
-251 84 0
-251 -28 0
-251 186 0
-251 93 0
251 -155 -84 28 -186 -93 0
-252 162 0
-252 -110 0
-252 5 0
-252 -180 0
-252 -21 0
252 -162 110 -5 180 21 0
-253 -185 0
-253 46 0
-253 138 0
-253 35 0
-253 -186 0
253 185 -46 -138 -35 186 0
-254 -104 0
-254 -35 0
-254 123 0
-254 -149 0
-254 42 0
254 104 35 -123 149 -42 0
-255 134 0
-255 78 0
-255 -74 0
-255 82 0
-255 117 0
255 -134 -78 74 -82 -117 0
251 252 253 254 255 0
-256 -135 0
-256 28 0
-256 -139 0
-256 98 0
-256 10 0
256 135 -28 139 -98 -10 0
-257 -65 0
-257 128 0
-257 13 0
-257 -141 0
-257 -105 0
257 65 -128 -13 141 105 0
-258 100 0
-258 7 0
-258 184 0
-258 -117 0
-258 -42 0
258 -100 -7 -184 117 42 0
-259 114 0
-259 -1 0
-259 91 0
-259 19 0
-259 100 0
259 -114 1 -91 -19 -100 0
-260 100 0
-260 160 0
-260 52 0
-260 13 0
-260 22 0
260 -100 -160 -52 -13 -22 0
256 257 258 259 260 0
-261 14 0
-261 22 0
-261 77 0
-261 -55 0
-261 172 0
261 -14 -22 -77 55 -172 0
-262 -81 0
-262 -141 0
-262 147 0
-262 -132 0
-262 33 0
262 81 141 -147 132 -33 0
-263 -157 0
-263 -174 0
-263 131 0
-263 6 0
-263 63 0
263 157 174 -131 -6 -63 0
-264 151 0
-264 15 0
-264 -145 0
-264 101 0
-264 -108 0
264 -151 -15 145 -101 108 0
-265 -51 0
-265 186 0
-265 49 0
-265 105 0
-265 -3 0
265 51 -186 -49 -105 3 0
261 262 263 264 265 0
-266 180 0
-266 -24 0
-266 -15 0
-266 37 0
-266 17 0
266 -180 24 15 -37 -17 0
-267 -183 0
-267 138 0
-267 166 0
-267 -159 0
-267 -150 0
267 183 -138 -166 159 150 0
-268 -152 0
-268 32 0
-268 -118 0
-268 -55 0
-268 99 0
268 152 -32 118 55 -99 0
-269 -154 0
-269 68 0
-269 175 0
-269 -182 0
-269 -158 0
269 154 -68 -175 182 158 0
-270 -179 0
-270 185 0
-270 -137 0
-270 -153 0
-270 -2 0
270 179 -185 137 153 2 0
266 267 268 269 270 0
-271 -49 0
-271 165 0
-271 -183 0
-271 -89 0
-271 25 0
271 49 -165 183 89 -25 0
-272 179 0
-272 -137 0
-272 44 0
-272 29 0
-272 143 0
272 -179 137 -44 -29 -143 0
-273 84 0
-273 -179 0
-273 -74 0
-273 93 0
-273 149 0
273 -84 179 74 -93 -149 0
-274 16 0
-274 -150 0
-274 -44 0
-274 86 0
-274 111 0
274 -16 150 44 -86 -111 0
-275 -154 0
-275 -46 0
-275 47 0
-275 113 0
-275 -55 0
275 154 46 -47 -113 55 0
271 272 273 274 275 0
-276 89 0
-276 -26 0
-276 -105 0
-276 -103 0
-276 94 0
276 -89 26 105 103 -94 0
-277 -98 0
-277 72 0
-277 122 0
-277 151 0
-277 80 0
277 98 -72 -122 -151 -80 0
-278 -31 0
-278 -49 0
-278 -104 0
-278 -56 0
-278 4 0
278 31 49 104 56 -4 0
-279 -155 0
-279 102 0
-279 168 0
-279 151 0
-279 60 0
279 155 -102 -168 -151 -60 0
-280 -144 0
-280 -134 0
-280 -188 0
-280 28 0
-280 -38 0
280 144 134 188 -28 38 0
276 277 278 279 280 0
-281 49 0
-281 -65 0
-281 -81 0
-281 -61 0
-281 -137 0
281 -49 65 81 61 137 0
-282 -120 0
-282 -32 0
-282 150 0
-282 118 0
-282 -164 0
282 120 32 -150 -118 164 0
-283 48 0
-283 -119 0
-283 90 0
-283 -175 0
-283 -188 0
283 -48 119 -90 175 188 0
-284 177 0
-284 101 0
-284 90 0
-284 178 0
-284 -91 0
284 -177 -101 -90 -178 91 0
-285 -60 0
-285 81 0
-285 111 0
-285 18 0
-285 122 0
285 60 -81 -111 -18 -122 0
281 282 283 284 285 0
-286 97 0
-286 38 0
-286 -2 0
-286 115 0
-286 48 0
286 -97 -38 2 -115 -48 0
-287 11 0
-287 156 0
-287 110 0
-287 -86 0
-287 90 0
287 -11 -156 -110 86 -90 0
-288 -57 0
-288 -167 0
-288 73 0
-288 -131 0
-288 69 0
288 57 167 -73 131 -69 0
-289 -16 0
-289 144 0
-289 95 0
-289 61 0
-289 164 0
289 16 -144 -95 -61 -164 0
-290 -126 0
-290 67 0
-290 36 0
-290 -103 0
-290 -20 0
290 126 -67 -36 103 20 0
286 287 288 289 290 0
-291 -64 0
-291 -159 0
-291 -76 0
-291 -61 0
-291 -105 0
291 64 159 76 61 105 0
-292 -136 0
-292 -109 0
-292 101 0
-292 -150 0
-292 79 0
292 136 109 -101 150 -79 0
-293 89 0
-293 -56 0
-293 163 0
-293 113 0
-293 52 0
293 -89 56 -163 -113 -52 0
-294 -136 0
-294 44 0
-294 160 0
-294 -146 0
-294 23 0
294 136 -44 -160 146 -23 0
-295 27 0
-295 -82 0
-295 12 0
-295 121 0
-295 -145 0
295 -27 82 -12 -121 145 0
291 292 293 294 295 0
-296 181 0
-296 -10 0
-296 89 0
-296 134 0
-296 149 0
296 -181 10 -89 -134 -149 0
-297 -63 0
-297 57 0
-297 -4 0
-297 30 0
-297 110 0
297 63 -57 4 -30 -110 0
-298 -31 0
-298 -16 0
-298 -159 0
-298 -137 0
-298 -168 0
298 31 16 159 137 168 0
-299 -90 0
-299 -139 0
-299 164 0
-299 36 0
-299 160 0
299 90 139 -164 -36 -160 0
-300 -134 0
-300 31 0
-300 -50 0
-300 150 0
-300 -24 0
300 134 -31 50 -150 24 0
296 297 298 299 300 0
-301 -9 0
-301 -53 0
-301 -49 0
-301 184 0
-301 33 0
301 9 53 49 -184 -33 0
-302 -185 0
-302 40 0
-302 -81 0
-302 -169 0
-302 -16 0
302 185 -40 81 169 16 0
-303 26 0
-303 -147 0
-303 140 0
-303 -21 0
-303 -49 0
303 -26 147 -140 21 49 0
-304 -72 0
-304 -77 0
-304 35 0
-304 81 0
-304 21 0
304 72 77 -35 -81 -21 0
-305 -19 0
-305 113 0
-305 121 0
-305 173 0
-305 -184 0
305 19 -113 -121 -173 184 0
301 302 303 304 305 0
-306 -178 0
-306 -36 0
-306 -139 0
-306 31 0
-306 64 0
306 178 36 139 -31 -64 0
-307 40 0
-307 145 0
-307 134 0
-307 -152 0
-307 189 0
307 -40 -145 -134 152 -189 0
-308 -64 0
-308 -84 0
-308 -162 0
-308 95 0
-308 -82 0
308 64 84 162 -95 82 0
-309 -40 0
-309 114 0
-309 189 0
-309 19 0
-309 89 0
309 40 -114 -189 -19 -89 0
-310 82 0
-310 -114 0
-310 -116 0
-310 144 0
-310 87 0
310 -82 114 116 -144 -87 0
306 307 308 309 310 0
-311 -70 0
-311 165 0
-311 73 0
-311 -102 0
-311 -114 0
311 70 -165 -73 102 114 0
-312 109 0
-312 57 0
-312 26 0
-312 181 0
-312 -150 0
312 -109 -57 -26 -181 150 0
-313 -86 0
-313 -168 0
-313 -20 0
-313 75 0
-313 -152 0
313 86 168 20 -75 152 0
-314 -77 0
-314 55 0
-314 133 0
-314 -13 0
-314 52 0
314 77 -55 -133 13 -52 0
-315 45 0
-315 -83 0
-315 -190 0
-315 156 0
-315 -132 0
315 -45 83 190 -156 132 0
311 312 313 314 315 0
-316 -121 0
-316 -101 0
-316 -167 0
-316 -90 0
-316 158 0
316 121 101 167 90 -158 0
-317 -80 0
-317 -37 0
-317 -179 0
-317 11 0
-317 -173 0
317 80 37 179 -11 173 0
-318 69 0
-318 -14 0
-318 119 0
-318 167 0
-318 87 0
318 -69 14 -119 -167 -87 0
-319 -172 0
-319 -32 0
-319 78 0
-319 -129 0
-319 170 0
319 172 32 -78 129 -170 0
-320 -144 0
-320 97 0
-320 29 0
-320 -185 0
-320 -133 0
320 144 -97 -29 185 133 0
316 317 318 319 320 0
-321 157 0
-321 -17 0
-321 -164 0
-321 -23 0
-321 -152 0
321 -157 17 164 23 152 0
-322 -10 0
-322 128 0
-322 -79 0
-322 35 0
-322 -184 0
322 10 -128 79 -35 184 0
-323 103 0
-323 -48 0
-323 -134 0
-323 67 0
-323 20 0
323 -103 48 134 -67 -20 0
-324 87 0
-324 33 0
-324 96 0
-324 -75 0
-324 -150 0
324 -87 -33 -96 75 150 0
-325 -183 0
-325 -99 0
-325 -132 0
-325 14 0
-325 -112 0
325 183 99 132 -14 112 0
321 322 323 324 325 0
-326 156 0
-326 126 0
-326 -105 0
-326 16 0
-326 124 0
326 -156 -126 105 -16 -124 0
-327 76 0
-327 -177 0
-327 67 0
-327 36 0
-327 98 0
327 -76 177 -67 -36 -98 0
-328 -7 0
-328 139 0
-328 -58 0
-328 155 0
-328 87 0
328 7 -139 58 -155 -87 0
-329 66 0
-329 150 0
-329 -104 0
-329 106 0
-329 115 0
329 -66 -150 104 -106 -115 0
-330 -175 0
-330 -5 0
-330 100 0
-330 -34 0
-330 -41 0
330 175 5 -100 34 41 0
326 327 328 329 330 0
-331 72 0
-331 1 0
-331 -134 0
-331 -127 0
-331 28 0
331 -72 -1 134 127 -28 0
-332 -166 0
-332 117 0
-332 118 0
-332 171 0
-332 -131 0
332 166 -117 -118 -171 131 0
-333 -78 0
-333 122 0
-333 16 0
-333 22 0
-333 -12 0
333 78 -122 -16 -22 12 0
-334 -74 0
-334 -22 0
-334 111 0
-334 -98 0
-334 -27 0
334 74 22 -111 98 27 0
-335 80 0
-335 -122 0
-335 135 0
-335 -92 0
-335 -30 0
335 -80 122 -135 92 30 0
331 332 333 334 335 0
-336 100 0
-336 82 0
-336 -47 0
-336 -23 0
-336 -87 0
336 -100 -82 47 23 87 0
-337 87 0
-337 -18 0
-337 1 0
-337 105 0
-337 -169 0
337 -87 18 -1 -105 169 0
-338 106 0
-338 -14 0
-338 -70 0
-338 -78 0
-338 -171 0
338 -106 14 70 78 171 0
-339 128 0
-339 -52 0
-339 -85 0
-339 -54 0
-339 -107 0
339 -128 52 85 54 107 0
-340 110 0
-340 -37 0
-340 -101 0
-340 43 0
-340 -177 0
340 -110 37 101 -43 177 0
336 337 338 339 340 0
-341 71 0
-341 -170 0
-341 -12 0
-341 -39 0
-341 -96 0
341 -71 170 12 39 96 0
-342 -127 0
-342 -42 0
-342 -2 0
-342 78 0
-342 57 0
342 127 42 2 -78 -57 0
-343 63 0
-343 102 0
-343 -190 0
-343 -187 0
-343 7 0
343 -63 -102 190 187 -7 0
-344 -76 0
-344 179 0
-344 108 0
-344 139 0
-344 -147 0
344 76 -179 -108 -139 147 0
-345 177 0
-345 -74 0
-345 3 0
-345 -153 0
-345 116 0
345 -177 74 -3 153 -116 0
341 342 343 344 345 0
-346 113 0
-346 5 0
-346 -152 0
-346 61 0
-346 80 0
346 -113 -5 152 -61 -80 0
-347 104 0
-347 -124 0
-347 -117 0
-347 102 0
-347 -108 0
347 -104 124 117 -102 108 0
-348 -45 0
-348 126 0
-348 -46 0
-348 183 0
-348 108 0
348 45 -126 46 -183 -108 0
-349 165 0
-349 -109 0
-349 26 0
-349 17 0
-349 12 0
349 -165 109 -26 -17 -12 0
-350 150 0
-350 -179 0
-350 29 0
-350 1 0
-350 -5 0
350 -150 179 -29 -1 5 0
346 347 348 349 350 0
-351 106 0
-351 182 0
-351 41 0
-351 99 0
-351 -97 0
351 -106 -182 -41 -99 97 0
-352 147 0
-352 -65 0
-352 127 0
-352 73 0
-352 129 0
352 -147 65 -127 -73 -129 0
-353 -93 0
-353 190 0
-353 149 0
-353 153 0
-353 -89 0
353 93 -190 -149 -153 89 0
-354 61 0
-354 143 0
-354 -73 0
-354 64 0
-354 -124 0
354 -61 -143 73 -64 124 0
-355 -24 0
-355 181 0
-355 176 0
-355 -41 0
-355 113 0
355 24 -181 -176 41 -113 0
351 352 353 354 355 0
-356 -135 0
-356 90 0
-356 122 0
-356 140 0
-356 -123 0
356 135 -90 -122 -140 123 0
-357 -116 0
-357 -72 0
-357 2 0
-357 56 0
-357 -161 0
357 116 72 -2 -56 161 0
-358 94 0
-358 -175 0
-358 -9 0
-358 50 0
-358 161 0
358 -94 175 9 -50 -161 0
-359 -129 0
-359 -23 0
-359 3 0
-359 90 0
-359 179 0
359 129 23 -3 -90 -179 0
-360 64 0
-360 168 0
-360 172 0
-360 105 0
-360 -9 0
360 -64 -168 -172 -105 9 0
356 357 358 359 360 0
-361 -42 0
-361 -77 0
-361 183 0
-361 -1 0
-361 72 0
361 42 77 -183 1 -72 0
-362 -15 0
-362 -131 0
-362 -164 0
-362 -119 0
-362 -89 0
362 15 131 164 119 89 0
-363 -41 0
-363 -139 0
-363 -6 0
-363 47 0
-363 98 0
363 41 139 6 -47 -98 0
-364 16 0
-364 -42 0
-364 -161 0
-364 18 0
-364 -142 0
364 -16 42 161 -18 142 0
-365 90 0
-365 122 0
-365 70 0
-365 -143 0
-365 172 0
365 -90 -122 -70 143 -172 0
361 362 363 364 365 0
-366 -141 0
-366 70 0
-366 -182 0
-366 -121 0
-366 185 0
366 141 -70 182 121 -185 0
-367 31 0
-367 -163 0
-367 7 0
-367 -164 0
-367 28 0
367 -31 163 -7 164 -28 0
-368 94 0
-368 73 0
-368 -116 0
-368 115 0
-368 28 0
368 -94 -73 116 -115 -28 0
-369 92 0
-369 -47 0
-369 142 0
-369 -81 0
-369 94 0
369 -92 47 -142 81 -94 0
-370 -68 0
-370 -32 0
-370 -113 0
-370 63 0
-370 20 0
370 68 32 113 -63 -20 0
366 367 368 369 370 0
-371 -190 0
-371 79 0
-371 20 0
-371 -175 0
-371 -97 0
371 190 -79 -20 175 97 0
-372 -186 0
-372 -131 0
-372 -26 0
-372 -178 0
-372 -137 0
372 186 131 26 178 137 0
-373 143 0
-373 26 0
-373 -73 0
-373 88 0
-373 -8 0
373 -143 -26 73 -88 8 0
-374 161 0
-374 115 0
-374 -48 0
-374 130 0
-374 46 0
374 -161 -115 48 -130 -46 0
-375 -182 0
-375 -110 0
-375 -26 0
-375 -170 0
-375 36 0
375 182 110 26 170 -36 0
371 372 373 374 375 0
-376 171 0
-376 -128 0
-376 65 0
-376 165 0
-376 -172 0
376 -171 128 -65 -165 172 0
-377 124 0
-377 -106 0
-377 80 0
-377 57 0
-377 -110 0
377 -124 106 -80 -57 110 0
-378 122 0
-378 57 0
-378 -78 0
-378 131 0
-378 34 0
378 -122 -57 78 -131 -34 0
-379 71 0
-379 -60 0
-379 -162 0
-379 -8 0
-379 -173 0
379 -71 60 162 8 173 0
-380 -168 0
-380 119 0
-380 -176 0
-380 -135 0
-380 172 0
380 168 -119 176 135 -172 0
376 377 378 379 380 0
-381 86 0
-381 114 0
-381 -38 0
-381 -69 0
-381 20 0
381 -86 -114 38 69 -20 0
-382 44 0
-382 122 0
-382 -111 0
-382 -7 0
-382 -106 0
382 -44 -122 111 7 106 0
-383 -92 0
-383 42 0
-383 37 0
-383 162 0
-383 45 0
383 92 -42 -37 -162 -45 0
-384 -155 0
-384 46 0
-384 136 0
-384 -130 0
-384 174 0
384 155 -46 -136 130 -174 0
-385 -61 0
-385 -156 0
-385 63 0
-385 -49 0
-385 43 0
385 61 156 -63 49 -43 0
381 382 383 384 385 0
-386 124 0
-386 -166 0
-386 178 0
-386 -4 0
-386 -56 0
386 -124 166 -178 4 56 0
-387 1 0
-387 -9 0
-387 -66 0
-387 147 0
-387 -20 0
387 -1 9 66 -147 20 0
-388 54 0
-388 3 0
-388 -4 0
-388 -127 0
-388 162 0
388 -54 -3 4 127 -162 0
-389 -103 0
-389 79 0
-389 -28 0
-389 111 0
-389 89 0
389 103 -79 28 -111 -89 0
-390 -161 0
-390 57 0
-390 140 0
-390 -3 0
-390 156 0
390 161 -57 -140 3 -156 0
386 387 388 389 390 0
-391 162 0
-391 -172 0
-391 -95 0
-391 -166 0
-391 -75 0
391 -162 172 95 166 75 0
-392 -67 0
-392 89 0
-392 92 0
-392 65 0
-392 73 0
392 67 -89 -92 -65 -73 0
-393 131 0
-393 6 0
-393 152 0
-393 -89 0
-393 -70 0
393 -131 -6 -152 89 70 0
-394 -32 0
-394 -93 0
-394 -68 0
-394 -176 0
-394 169 0
394 32 93 68 176 -169 0
-395 103 0
-395 188 0
-395 27 0
-395 131 0
-395 -73 0
395 -103 -188 -27 -131 73 0
391 392 393 394 395 0
-396 -91 0
-396 -73 0
-396 147 0
-396 94 0
-396 66 0
396 91 73 -147 -94 -66 0
-397 -111 0
-397 -176 0
-397 75 0
-397 -161 0
-397 188 0
397 111 176 -75 161 -188 0
-398 188 0
-398 182 0
-398 36 0
-398 73 0
-398 -67 0
398 -188 -182 -36 -73 67 0
-399 29 0
-399 133 0
-399 4 0
-399 -124 0
-399 -108 0
399 -29 -133 -4 124 108 0
-400 -65 0
-400 20 0
-400 -1 0
-400 -85 0
-400 -179 0
400 65 -20 1 85 179 0
396 397 398 399 400 0
-401 -17 0
-401 -3 0
-401 62 0
-401 176 0
-401 -97 0
401 17 3 -62 -176 97 0
-402 29 0
-402 41 0
-402 187 0
-402 -96 0
-402 -86 0
402 -29 -41 -187 96 86 0
-403 -165 0
-403 74 0
-403 85 0
-403 138 0
-403 -162 0
403 165 -74 -85 -138 162 0
-404 2 0
-404 -26 0
-404 -97 0
-404 50 0
-404 65 0
404 -2 26 97 -50 -65 0
-405 -60 0
-405 27 0
-405 142 0
-405 69 0
-405 88 0
405 60 -27 -142 -69 -88 0
401 402 403 404 405 0
-406 20 0
-406 -117 0
-406 -58 0
-406 -92 0
-406 -100 0
406 -20 117 58 92 100 0
-407 122 0
-407 -49 0
-407 -106 0
-407 134 0
-407 -14 0
407 -122 49 106 -134 14 0
-408 67 0
-408 163 0
-408 23 0
-408 -153 0
-408 167 0
408 -67 -163 -23 153 -167 0
-409 104 0
-409 11 0
-409 -118 0
-409 -124 0
-409 24 0
409 -104 -11 118 124 -24 0
-410 -4 0
-410 -72 0
-410 -177 0
-410 -168 0
-410 125 0
410 4 72 177 168 -125 0
406 407 408 409 410 0
-411 168 0
-411 -95 0
-411 -131 0
-411 -32 0
-411 104 0
411 -168 95 131 32 -104 0
-412 -133 0
-412 132 0
-412 -111 0
-412 12 0
-412 -87 0
412 133 -132 111 -12 87 0
-413 26 0
-413 122 0
-413 11 0
-413 -186 0
-413 -68 0
413 -26 -122 -11 186 68 0
-414 -28 0
-414 -40 0
-414 -20 0
-414 121 0
-414 -151 0
414 28 40 20 -121 151 0
-415 101 0
-415 -71 0
-415 -158 0
-415 -57 0
-415 82 0
415 -101 71 158 57 -82 0
411 412 413 414 415 0
-416 81 0
-416 -119 0
-416 -75 0
-416 -91 0
-416 87 0
416 -81 119 75 91 -87 0
-417 180 0
-417 -59 0
-417 -190 0
-417 -177 0
-417 -83 0
417 -180 59 190 177 83 0
-418 -59 0
-418 44 0
-418 -184 0
-418 189 0
-418 -80 0
418 59 -44 184 -189 80 0
-419 115 0
-419 173 0
-419 -37 0
-419 151 0
-419 -9 0
419 -115 -173 37 -151 9 0
-420 -13 0
-420 4 0
-420 22 0
-420 -36 0
-420 -17 0
420 13 -4 -22 36 17 0
416 417 418 419 420 0
-421 91 0
-421 1 0
-421 151 0
-421 99 0
-421 144 0
421 -91 -1 -151 -99 -144 0
-422 190 0
-422 122 0
-422 -12 0
-422 98 0
-422 107 0
422 -190 -122 12 -98 -107 0
-423 55 0
-423 1 0
-423 -43 0
-423 -35 0
-423 -158 0
423 -55 -1 43 35 158 0
-424 78 0
-424 171 0
-424 55 0
-424 161 0
-424 166 0
424 -78 -171 -55 -161 -166 0
-425 -119 0
-425 -146 0
-425 -153 0
-425 3 0
-425 -2 0
425 119 146 153 -3 2 0
421 422 423 424 425 0
-426 104 0
-426 60 0
-426 -67 0
-426 188 0
-426 -10 0
426 -104 -60 67 -188 10 0
-427 -48 0
-427 49 0
-427 -4 0
-427 168 0
-427 3 0
427 48 -49 4 -168 -3 0
-428 -133 0
-428 32 0
-428 -9 0
-428 165 0
-428 -61 0
428 133 -32 9 -165 61 0
-429 -16 0
-429 101 0
-429 133 0
-429 118 0
-429 20 0
429 16 -101 -133 -118 -20 0
-430 11 0
-430 -7 0
-430 -128 0
-430 -165 0
-430 -29 0
430 -11 7 128 165 29 0
426 427 428 429 430 0
